certificates/rado_a7_c257_N37.cnf
c Rad2 upper bound instance: x1 + 7*x2 - x3 = 257, interval [1,37]
p cnf 37 250
1 3 37 0
-1 -3 -37 0
2 4 37 0
-2 -4 -37 0
3 5 37 0
-3 -5 -37 0
4 6 37 0
-4 -6 -37 0
5 7 37 0
-5 -7 -37 0
1 6 36 0
-1 -6 -36 0
6 8 37 0
-6 -8 -37 0
2 7 36 0
-2 -7 -36 0
7 9 37 0
-7 -9 -37 0
3 8 36 0
-3 -8 -36 0
8 10 37 0
-8 -10 -37 0
4 9 36 0
-4 -9 -36 0
9 11 37 0
-9 -11 -37 0
5 10 36 0
-5 -10 -36 0
10 12 37 0
-10 -12 -37 0
6 11 36 0
-6 -11 -36 0
11 13 37 0
-11 -13 -37 0
7 12 36 0
-7 -12 -36 0
12 14 37 0
-12 -14 -37 0
1 13 35 0
-1 -13 -35 0
8 13 36 0
-8 -13 -36 0
13 15 37 0
-13 -15 -37 0
2 14 35 0
-2 -14 -35 0
9 14 36 0
-9 -14 -36 0
14 16 37 0
-14 -16 -37 0
3 15 35 0
-3 -15 -35 0
10 15 36 0
-10 -15 -36 0
15 17 37 0
-15 -17 -37 0
4 16 35 0
-4 -16 -35 0
11 16 36 0
-11 -16 -36 0
16 18 37 0
-16 -18 -37 0
5 17 35 0
-5 -17 -35 0
12 17 36 0
-12 -17 -36 0
17 19 37 0
-17 -19 -37 0
6 18 35 0
-6 -18 -35 0
13 18 36 0
-13 -18 -36 0
18 20 37 0
-18 -20 -37 0
7 19 35 0
-7 -19 -35 0
14 19 36 0
-14 -19 -36 0
19 21 37 0
-19 -21 -37 0
1 20 34 0
-1 -20 -34 0
8 20 35 0
-8 -20 -35 0
15 20 36 0
-15 -20 -36 0
20 22 37 0
-20 -22 -37 0
2 21 34 0
-2 -21 -34 0
9 21 35 0
-9 -21 -35 0
16 21 36 0
-16 -21 -36 0
21 23 37 0
-21 -23 -37 0
3 22 34 0
-3 -22 -34 0
10 22 35 0
-10 -22 -35 0
17 22 36 0
-17 -22 -36 0
22 24 37 0
-22 -24 -37 0
4 23 34 0
-4 -23 -34 0
11 23 35 0
-11 -23 -35 0
18 23 36 0
-18 -23 -36 0
23 25 37 0
-23 -25 -37 0
5 24 34 0
-5 -24 -34 0
12 24 35 0
-12 -24 -35 0
19 24 36 0
-19 -24 -36 0
24 26 37 0
-24 -26 -37 0
6 25 34 0
-6 -25 -34 0
13 25 35 0
-13 -25 -35 0
20 25 36 0
-20 -25 -36 0
25 27 37 0
-25 -27 -37 0
7 26 34 0
-7 -26 -34 0
14 26 35 0
-14 -26 -35 0
21 26 36 0
-21 -26 -36 0
26 28 37 0
-26 -28 -37 0
1 27 33 0
-1 -27 -33 0
8 27 34 0
-8 -27 -34 0
15 27 35 0
-15 -27 -35 0
22 27 36 0
-22 -27 -36 0
27 29 37 0
-27 -29 -37 0
2 28 33 0
-2 -28 -33 0
9 28 34 0
-9 -28 -34 0
16 28 35 0
-16 -28 -35 0
23 28 36 0
-23 -28 -36 0
28 30 37 0
-28 -30 -37 0
3 29 33 0
-3 -29 -33 0
10 29 34 0
-10 -29 -34 0
17 29 35 0
-17 -29 -35 0
24 29 36 0
-24 -29 -36 0
29 31 37 0
-29 -31 -37 0
4 30 33 0
-4 -30 -33 0
11 30 34 0
-11 -30 -34 0
18 30 35 0
-18 -30 -35 0
25 30 36 0
-25 -30 -36 0
30 32 37 0
-30 -32 -37 0
5 31 33 0
-5 -31 -33 0
12 31 34 0
-12 -31 -34 0
19 31 35 0
-19 -31 -35 0
26 31 36 0
-26 -31 -36 0
31 33 37 0
-31 -33 -37 0
6 32 33 0
-6 -32 -33 0
13 32 34 0
-13 -32 -34 0
20 32 35 0
-20 -32 -35 0
27 32 36 0
-27 -32 -36 0
32 34 37 0
-32 -34 -37 0
7 33 0
-7 -33 0
14 33 34 0
-14 -33 -34 0
21 33 35 0
-21 -33 -35 0
28 33 36 0
-28 -33 -36 0
33 35 37 0
-33 -35 -37 0
1 32 34 0
-1 -32 -34 0
8 33 34 0
-8 -33 -34 0
15 34 0
-15 -34 0
22 34 35 0
-22 -34 -35 0
29 34 36 0
-29 -34 -36 0
34 36 37 0
-34 -36 -37 0
2 32 35 0
-2 -32 -35 0
9 33 35 0
-9 -33 -35 0
16 34 35 0
-16 -34 -35 0
23 35 0
-23 -35 0
30 35 36 0
-30 -35 -36 0
35 37 0
-35 -37 0
3 32 36 0
-3 -32 -36 0
10 33 36 0
-10 -33 -36 0
17 34 36 0
-17 -34 -36 0
24 35 36 0
-24 -35 -36 0
31 36 0
-31 -36 0
4 32 37 0
-4 -32 -37 0
11 33 37 0
-11 -33 -37 0
18 34 37 0
-18 -34 -37 0
25 35 37 0
-25 -35 -37 0
32 36 37 0
-32 -36 -37 0
