certificates/rado_a7_c257_N37.drat
-37 0
35 0
-23 0
21 0
25 0
-9 0
-33 0
-13 0
7 0
11 0
31 0
15 0
-19 0
-36 0
-3 0
-27 0
-34 0
17 0
14 0
24 0
0
